
******************************************************************************
This program contains Ipopt, a library for large-scale nonlinear optimization.
 Ipopt is released as open source code under the Eclipse Public License (EPL).
         For more information visit https://github.com/coin-or/Ipopt
******************************************************************************

This is Ipopt version 3.14.19, running with linear solver MUMPS 5.8.1.

Number of nonzeros in equality constraint Jacobian...:     4389
Number of nonzeros in inequality constraint Jacobian.:        0
Number of nonzeros in Lagrangian Hessian.............:     1050

Total number of variables............................:     1287
                     variables with only lower bounds:        0
                variables with lower and upper bounds:      457
                     variables with only upper bounds:        0
Total number of equality constraints.................:     1274
Total number of inequality constraints...............:        0
        inequality constraints with only lower bounds:        0
   inequality constraints with lower and upper bounds:        0
        inequality constraints with only upper bounds:        0

iter    objective    inf_pr   inf_du lg(mu)  ||d||  lg(rg) alpha_du alpha_pr  ls
   0  9.8479259e+00 9.90e+01 1.91e-04  -1.0 0.00e+00    -  0.00e+00 0.00e+00   0
   1  9.9172926e+00 2.44e+01 1.69e+01  -1.0 9.86e+01    -  5.35e-02 1.00e+00h  1
   2  9.8918327e+00 5.44e+00 7.54e-02  -1.0 1.80e+01    -  9.33e-01 1.00e+00h  1
   3  9.9319343e+00 2.11e+00 4.39e-02  -1.0 8.04e+00    -  6.87e-01 7.17e-01h  1
   4  1.0340192e+01 5.30e+01 1.27e-01  -1.0 1.64e+01    -  9.91e-01 9.02e-01f  1
   5  1.0360415e+01 7.45e+00 1.67e-03  -1.0 1.19e+01    -  1.00e+00 1.00e+00h  1
   6  1.0336989e+01 2.24e-01 6.97e-05  -1.0 1.26e+00    -  1.00e+00 1.00e+00h  1
   7  1.0128166e+01 5.37e-01 4.91e-01  -1.7 1.88e+00    -  6.14e-01 1.00e+00h  1
   8  9.9364816e+00 2.15e+00 1.76e-02  -1.7 2.29e+00    -  1.00e+00 1.00e+00h  1
   9  9.9146596e+00 3.15e-01 3.09e-04  -1.7 1.99e+00    -  1.00e+00 1.00e+00h  1
iter    objective    inf_pr   inf_du lg(mu)  ||d||  lg(rg) alpha_du alpha_pr  ls
  10  9.9145523e+00 1.06e-04 2.16e-08  -1.7 2.86e-01    -  1.00e+00 1.00e+00h  1
  11  9.8558945e+00 1.25e+01 1.12e-01  -3.8 7.12e+00    -  7.89e-01 1.00e+00f  1
  12  9.8529402e+00 4.14e+00 4.25e-04  -3.8 2.22e+01    -  1.00e+00 1.00e+00h  1
  13  9.8521899e+00 3.46e-02 1.47e-03  -3.8 4.96e+00    -  8.09e-01 1.00e+00h  1
  14  9.8504057e+00 4.94e-03 5.06e-04  -3.8 9.05e-01    -  1.00e+00 8.85e-01h  1
  15  9.8507971e+00 2.84e-05 7.79e-06  -3.8 1.72e-01    -  1.00e+00 1.00e+00f  1
  16  9.8486443e+00 1.73e-04 1.27e-03  -5.7 9.86e-01    -  5.37e-01 1.00e+00h  1
  17  9.8481305e+00 5.39e-05 3.73e-04  -5.7 3.42e-01    -  9.55e-01 7.24e-01h  1
  18  9.8479249e+00 9.82e-06 7.53e-05  -5.7 8.25e-01    -  7.22e-01 9.38e-01h  1
  19  9.8479221e+00 5.68e-05 1.17e-03  -5.7 3.97e-01    -  1.24e-02 1.68e-01f  1
iter    objective    inf_pr   inf_du lg(mu)  ||d||  lg(rg) alpha_du alpha_pr  ls
  20  9.8479221e+00 5.37e-05 4.58e-08  -5.7 6.08e-02    -  1.00e+00 1.00e+00f  1
  21  9.8479220e+00 4.47e-06 1.50e-04  -5.7 3.91e-02    -  4.79e-01 1.00e+00h  1
  22  9.8479217e+00 3.33e-06 2.85e-09  -5.7 4.78e-03    -  1.00e+00 1.00e+00h  1
  23  9.8479014e+00 1.69e-06 1.26e-03  -8.6 8.86e-02    -  9.16e-01 5.66e-01h  1
  24  9.8479013e+00 2.50e-06 4.28e-03  -8.6 9.66e-03    -  1.00e+00 3.13e-01h  1
  25  9.8479013e+00 1.37e-05 1.17e-08  -8.6 9.66e-03    -  1.00e+00 1.00e+00f  1
  26  9.8479013e+00 1.34e-07 1.18e-10  -8.6 9.48e-04    -  1.00e+00 1.00e+00h  1
  27  9.8479013e+00 2.44e-10 2.11e-13  -8.6 4.07e-05    -  1.00e+00 1.00e+00h  1

Number of Iterations....: 27

                                   (scaled)                 (unscaled)
Objective...............:   9.8479012751496668e+00    9.8479012751496668e+00
Dual infeasibility......:   2.1092416008228199e-13    2.1092416008228199e-13
Constraint violation....:   2.4432811329689421e-10    2.4432811329689421e-10
Variable bound violation:   0.0000000000000000e+00    0.0000000000000000e+00
Complementarity.........:   2.5065415891902425e-09    2.5065415891902425e-09
Overall NLP error.......:   2.5065415891902425e-09    2.5065415891902425e-09


Number of objective function evaluations             = 28
Number of objective gradient evaluations             = 28
Number of equality constraint evaluations            = 28
Number of inequality constraint evaluations          = 0
Number of equality constraint Jacobian evaluations   = 28
Number of inequality constraint Jacobian evaluations = 0
Number of Lagrangian Hessian evaluations             = 27
Total seconds in IPOPT                               = 0.120

EXIT: Optimal Solution Found.
